10
0 5 6 6 3 6 7 6 7 7 
5 0 6 8 6 4 8 9 3 6 
6 6 0 3 3 3 2 4 5 1 
6 8 3 0 3 6 1 1 8 4 
3 6 3 3 0 5 4 3 6 4 
6 4 3 6 5 0 5 7 2 2 
7 8 2 1 4 5 0 2 7 3 
6 9 4 1 3 7 2 0 9 5 
7 3 5 8 6 2 7 9 0 4 
7 6 1 4 4 2 3 5 4 0 
